NAME : 1.81961.tour
COMMENT : Length = 81961
COMMENT : Found by LKH-3 [Keld Helsgaun] Tue Apr  9 01:04:53 2024
TYPE : TOUR
DIMENSION : 110
TOUR_SECTION
1
22
23
24
27
29
31
30
28
26
25
21
110
70
69
65
62
73
81
80
78
74
71
72
77
79
82
107
11
13
15
17
16
20
19
18
14
102
67
63
75
64
66
68
104
58
56
55
54
57
59
61
60
103
99
97
96
95
93
94
98
101
100
109
6
4
8
9
12
10
7
5
3
2
76
105
33
34
32
36
38
39
40
37
35
108
44
43
42
41
45
47
46
49
52
51
53
50
48
106
91
88
87
84
83
85
86
89
90
92
-1
EOF
